
Gurobi 11.0.1 (win64) logging started Wed May 15 12:31:52 2024

Set parameter LogFile to value "output/solver_log33.txt"
Gurobi Optimizer version 11.0.1 build v11.0.1rc0 (win64 - Windows 11.0 (22631.2))

CPU model: 11th Gen Intel(R) Core(TM) i7-1165G7 @ 2.80GHz, instruction set [SSE2|AVX|AVX2|AVX512]
Thread count: 4 physical cores, 8 logical processors, using up to 8 threads

Optimize a model with 2236 rows, 442 columns and 41311 nonzeros
Model fingerprint: 0x29024c28
Variable types: 248 continuous, 194 integer (194 binary)
Coefficient statistics:
  Matrix range     [4e-01, 1e+05]
  Objective range  [1e+00, 1e+02]
  Bounds range     [1e+00, 1e+00]
  RHS range        [1e-02, 1e+05]

User MIP start produced solution with objective 76842.2 (0.00s)
User MIP start produced solution with objective 76842.2 (0.00s)
Loaded user MIP start with objective 76842.2

Presolve removed 119 rows and 118 columns
Presolve time: 0.04s
Presolved: 2117 rows, 324 columns, 40666 nonzeros
Variable types: 228 continuous, 96 integer (96 binary)

Root relaxation: objective 7.689867e+04, 651 iterations, 0.04 seconds (0.09 work units)

    Nodes    |    Current Node    |     Objective Bounds      |     Work
 Expl Unexpl |  Obj  Depth IntInf | Incumbent    BestBd   Gap | It/Node Time

     0     0 76898.6654    0    4 76842.2334 76898.6654  0.07%     -    0s
     0     0 76898.6654    0    4 76842.2334 76898.6654  0.07%     -    0s
     0     0 76898.6654    0    3 76842.2334 76898.6654  0.07%     -    0s
H    0     0                    76842.274889 76898.6654  0.07%     -    0s
     0     0 76898.6654    0    3 76842.2749 76898.6654  0.07%     -    0s
     0     2 76898.6654    0    3 76842.2749 76898.6654  0.07%     -    0s
*    5     4               2    76898.665355 76898.6654  0.00%   8.4    0s

Explored 7 nodes (1171 simplex iterations) in 0.56 seconds (0.71 work units)
Thread count was 8 (of 8 available processors)

Solution count 4: 76898.7 76898.7 76842.3 76842.2 

Optimal solution found (tolerance 1.00e-04)
Best objective 7.689866535466e+04, best bound 7.689866535466e+04, gap 0.0000%
